\ LP format - for model browsing. Use MPS format to capture full model detail.
Minimize
  0 y[0,0] + 0 b_1[0,0] + 0 b_2[0,0] + 0 b_4[0,0] + 0 b_5[0,0] + 0 b_6[0,0]
   + 0 b_7[0,0] + 0 b_8[0,0] + 0 b_9[0,0] + 0 b_10[0,0]
Subject To
 R0: b = 1
 R1: x[0,0] - 10000 b_3[0,0] >= -9995
 R2: x[0,0] - 10000 b_3[0,0] <= 4.9999
 R3: x[0,1] - 10000 b_3[0,1] >= -9995
 R4: x[0,1] - 10000 b_3[0,1] <= 4.9999
 R5: x[0,2] - 10000 b_3[0,2] >= -9995
 R6: x[0,2] - 10000 b_3[0,2] <= 4.9999
 R7: x[0,3] - 10000 b_3[0,3] >= -9995
 R8: x[0,3] - 10000 b_3[0,3] <= 4.9999
 R9: y[0,1] - 10000 b_5[0,1] >= -10003.93050409261
 R10: y[0,1] - 10000 b_5[0,1] <= -3.93060409260645
 R11: y[0,2] - 10000 b_5[0,2] >= -10003.93050409261
 R12: y[0,2] - 10000 b_5[0,2] <= -3.93060409260645
 R13: y[0,3] - 10000 b_5[0,3] >= -10003.93050409261
 R14: y[0,3] - 10000 b_5[0,3] <= -3.93060409260645
 R15: - x[0,1] - 10000 b_8[0,1] >= -10003.9999
 R16: - x[0,1] - 10000 b_8[0,1] <= -4
 R17: - x[0,2] - 10000 b_8[0,2] >= -10003.9999
 R18: - x[0,2] - 10000 b_8[0,2] <= -4
 R19: - y[0,1] - 10000 b_10[0,1] >= -10000.61070730088
 R20: - y[0,1] - 10000 b_10[0,1] <= -0.6108073008818149
 R21: - y[0,2] - 10000 b_10[0,2] >= -10000.61070730088
 R22: - y[0,2] - 10000 b_10[0,2] <= -0.6108073008818149
 R23: - y[0,3] - 10000 b_10[0,3] >= -10000.61070730088
 R24: - y[0,3] - 10000 b_10[0,3] <= -0.6108073008818149
Bounds
 -10000 <= x[0,0] <= 10000
 -10000 <= x[0,1] <= 10000
 -10000 <= x[0,2] <= 10000
 -10000 <= x[0,3] <= 10000
 -10000 <= y[0,0] <= 10000
 -10000 <= y[0,1] <= 10000
 -10000 <= y[0,2] <= 10000
 -10000 <= y[0,3] <= 10000
Binaries
 b b_1[0,0] b_2[0,0] b_3[0,0] b_3[0,1] b_3[0,2] b_3[0,3] b_4[0,0] b_5[0,0]
 b_5[0,1] b_5[0,2] b_5[0,3] b_6[0,0] b_7[0,0] b_8[0,0] b_8[0,1] b_8[0,2]
 b_9[0,0] b_10[0,0] b_10[0,1] b_10[0,2] b_10[0,3]
General Constraints
 GC0: b_2[0,0] = AND ( b_3[0,0] , b_3[0,1] , b_3[0,2] , b_3[0,3] )
 GC1: b_4[0,0] = OR ( b_5[0,1] , b_5[0,2] , b_5[0,3] )
 GC2: b_1[0,0] = AND ( b_2[0,0] , b_4[0,0] )
 GC3: b_7[0,0] = AND ( b_8[0,1] , b_8[0,2] )
 GC4: b_9[0,0] = AND ( b_10[0,1] , b_10[0,2] , b_10[0,3] )
 GC5: b_6[0,0] = OR ( b_7[0,0] , b_9[0,0] )
 GC6: b = AND ( b_1[0,0] , b_6[0,0] )
End
